<number of tasks>
50

<cycle time>
1000

<order strength>
0.204


<task times>
1 57
2 454
3 45
4 31
5 521
6 511
7 158
8 344
9 231
10 48
11 81
12 73
13 296
14 240
15 235
16 527
17 187
18 411
19 105
20 214
21 451
22 489
23 276
24 112
25 169
26 495
27 273
28 253
29 301
30 64
31 133
32 160
33 88
34 74
35 254
36 421
37 46
38 541
39 510
40 476
41 125
42 54
43 183
44 84
45 256
46 36
47 167
48 474
49 335
50 119

<precedence relations>
1,6
2,7
3,8
4,9
4,10
6,13
7,11
8,12
9,35
10,14
10,17
10,27
11,15
12,16
13,17
13,20
13,21
14,18
14,19
14,21
15,23
16,26
17,22
17,24
18,25
19,28
20,27
21,29
21,42
22,30
23,31
24,32
25,34
26,33
28,36
29,35
30,40
31,39
32,41
33,37
34,38
35,43
35,49
36,42
36,44
36,45
37,47
38,47
39,46
40,49
41,50
43,48
43,50

<end>
